c b=3,c=1169
p cnf 16 25
3 -6 0
3 -10 0
3 -13 0
3 -16 0
-3 6 0
-3 10 0
-3 13 0
-3 16 0
2 -5 0
2 -9 0
2 -12 0
2 -15 0
-2 5 0
-2 9 0
-2 12 0
-2 15 0
1 -4 0
1 -8 0
1 -11 0
1 -14 0
-1 4 0
-1 8 0
-1 11 0
-1 14 0
-7 0
